>> Start of run:   8-DEC-2016  16:11:31

reinit: -----------------------------------------------------------------------
reinit: System Name: BN
reinit: -----------------------------------------------------------------------
reinit: System Label: BN
reinit: -----------------------------------------------------------------------

initatom: Reading input for the pseudopotentials and atomic orbitals ----------
Species number:   1 Atomic number:    5 Label: B
Species number:   2 Atomic number:    7 Label: N

Ground state valence configuration:   2s02  2p01
Reading pseudopotential information in formatted form from B.psf

Valence configuration for pseudopotential generation:
2s( 2.00) rc: 1.74
2p( 1.00) rc: 1.74
3d( 0.00) rc: 1.74
4f( 0.00) rc: 1.74
Ground state valence configuration:   2s02  2p03
Reading pseudopotential information in formatted form from N.psf

Valence configuration for pseudopotential generation:
2s( 2.00) rc: 1.48
2p( 3.00) rc: 1.48
3d( 0.00) rc: 1.48
4f( 0.00) rc: 1.48
For B, standard SIESTA heuristics set lmxkb to 3
 (one more than the basis l, including polarization orbitals).
Use PS.lmax or PS.KBprojectors blocks to override.
For N, standard SIESTA heuristics set lmxkb to 3
 (one more than the basis l, including polarization orbitals).
Use PS.lmax or PS.KBprojectors blocks to override.

<basis_specs>
B                    Z=   5    Mass=  10.810        Charge= 0.17977+309
Lmxo=1 Lmxkb= 3    BasisType=split      Semic=F
L=0  Nsemic=0  Cnfigmx=2
          n=1  nzeta=2  polorb=0
            splnorm:   0.15000
               vcte:    0.0000
               rinn:    0.0000
               qcoe:    0.0000
               qyuk:    0.0000
               qwid:   0.10000E-01
                rcs:    0.0000      0.0000
            lambdas:    1.0000      1.0000
L=1  Nsemic=0  Cnfigmx=2
          n=1  nzeta=2  polorb=1
            splnorm:   0.15000
               vcte:    0.0000
               rinn:    0.0000
               qcoe:    0.0000
               qyuk:    0.0000
               qwid:   0.10000E-01
                rcs:    0.0000      0.0000
            lambdas:    1.0000      1.0000
L=0  Nkbl=1  erefs: 0.17977+309
L=1  Nkbl=1  erefs: 0.17977+309
L=2  Nkbl=1  erefs: 0.17977+309
L=3  Nkbl=1  erefs: 0.17977+309
</basis_specs>

atom: Called for B                     (Z =   5)

read_vps: Pseudopotential generation method:
read_vps: ATM3      Troullier-Martins
Total valence charge:    3.00000

read_vps: Pseudopotential includes a core correction:
read_vps: Pseudo-core for xc-correction

xc_check: Exchange-correlation functional:
xc_check: Ceperley-Alder
V l=0 = -2*Zval/r beyond r=  1.7165
V l=1 = -2*Zval/r beyond r=  1.7165
V l=2 = -2*Zval/r beyond r=  1.7165
V l=3 = -2*Zval/r beyond r=  1.6951
All V_l potentials equal beyond r=  1.7165
This should be close to max(r_c) in ps generation
All pots = -2*Zval/r beyond r=  1.7165

VLOCAL1: 99.0% of the norm of Vloc inside     14.733 Ry
VLOCAL1: 99.9% of the norm of Vloc inside     33.577 Ry
atom: Maximum radius for 4*pi*r*r*local-pseudopot. charge    2.04484
atom: Maximum radius for r*vlocal+2*Zval:    1.75994
GHOST: No ghost state for L =  0
GHOST: No ghost state for L =  1
GHOST: No ghost state for L =  2
GHOST: No ghost state for L =  3

KBgen: Kleinman-Bylander projectors:
   l= 0   rc=  1.897051   el= -0.689821   Ekb=  4.267659   kbcos=  0.294941
   l= 1   rc=  1.920920   el= -0.273582   Ekb= -2.493518   kbcos= -0.316494
   l= 2   rc=  2.044840   el=  0.002410   Ekb= -0.642570   kbcos= -0.014732
   l= 3   rc=  2.149707   el=  0.003543   Ekb= -0.260486   kbcos= -0.002341

KBgen: Total number of  Kleinman-Bylander projectors:   16
atom: -------------------------------------------------------------------------

atom: SANKEY-TYPE ORBITALS:
atom: Selected multiple-zeta basis: split

SPLIT: Orbitals with angular momentum L= 0

SPLIT: Basis orbitals for state 2s

SPLIT: PAO cut-off radius determined from an
SPLIT: energy shift=  0.020000 Ry

   izeta = 1
                 lambda =    1.000000
                     rc =    4.906010
                 energy =   -0.672079
                kinetic =    0.600553
    potential(screened) =   -1.272632
       potential(ionic) =   -3.301886

   izeta = 2
                 rmatch =    4.170113
              splitnorm =    0.150000
                 energy =   -0.581071
                kinetic =    0.883210
    potential(screened) =   -1.464280
       potential(ionic) =   -3.607314

[...]

SPLIT: Basis orbitals for state 2p

[...]

POLgen: Perturbative polarization orbital with L=  2

POLgen: Polarization orbital for state 2p

   izeta = 1
                     rc =    5.700051
                 energy =    0.829041
                kinetic =    1.746766
    potential(screened) =   -0.917724
       potential(ionic) =   -2.618902
atom: Total number of Sankey-type orbitals: 13

atm_pop: Valence configuration (for local Pseudopot. screening):
 2s( 2.00)
 2p( 1.00)
Vna: chval, zval:    3.00000   3.00000

Vna:  Cut-off radius for the neutral-atom potential:   5.700051
comcore: Pseudo-core radius Rcore=  2.122997

atom: _________________________________________________________________________

<basis_specs>
N                    Z=   7    Mass=  14.010        Charge= 0.17977+309
Lmxo=1 Lmxkb= 3    BasisType=split      Semic=F
L=0  Nsemic=0  Cnfigmx=2
          n=1  nzeta=2  polorb=0
            splnorm:   0.15000
               vcte:    0.0000
               rinn:    0.0000
               qcoe:    0.0000
               qyuk:    0.0000
               qwid:   0.10000E-01
                rcs:    0.0000      0.0000
            lambdas:    1.0000      1.0000
L=1  Nsemic=0  Cnfigmx=2
          n=1  nzeta=2  polorb=1
            splnorm:   0.15000
               vcte:    0.0000
               rinn:    0.0000
               qcoe:    0.0000
               qyuk:    0.0000
               qwid:   0.10000E-01
                rcs:    0.0000      0.0000
            lambdas:    1.0000      1.0000
L=0  Nkbl=1  erefs: 0.17977+309
L=1  Nkbl=1  erefs: 0.17977+309
L=2  Nkbl=1  erefs: 0.17977+309
L=3  Nkbl=1  erefs: 0.17977+309
</basis_specs>

atom: Called for N                     (Z =   7)

read_vps: Pseudopotential generation method:
read_vps: ATM3      Troullier-Martins
Total valence charge:    5.00000

xc_check: Exchange-correlation functional:
xc_check: Ceperley-Alder
V l=0 = -2*Zval/r beyond r=  1.4606
V l=1 = -2*Zval/r beyond r=  1.4606
V l=2 = -2*Zval/r beyond r=  1.4606
V l=3 = -2*Zval/r beyond r=  1.4606
All V_l potentials equal beyond r=  1.4606
This should be close to max(r_c) in ps generation
All pots = -2*Zval/r beyond r=  1.4606

VLOCAL1: 99.0% of the norm of Vloc inside     20.347 Ry
VLOCAL1: 99.9% of the norm of Vloc inside     46.372 Ry
atom: Maximum radius for 4*pi*r*r*local-pseudopot. charge    1.76189
atom: Maximum radius for r*vlocal+2*Zval:    1.53550
GHOST: No ghost state for L =  0
GHOST: No ghost state for L =  1
GHOST: No ghost state for L =  2
GHOST: No ghost state for L =  3

KBgen: Kleinman-Bylander projectors:
   l= 0   rc=  1.634559   el= -1.352239   Ekb=  4.901185   kbcos=  0.337501
   l= 1   rc=  1.614250   el= -0.532623   Ekb= -5.544141   kbcos= -0.433040
   l= 2   rc=  1.740002   el=  0.002346   Ekb= -1.331777   kbcos= -0.007563
   l= 3   rc=  1.806505   el=  0.003449   Ekb= -0.515466   kbcos= -0.000994

KBgen: Total number of  Kleinman-Bylander projectors:   16
atom: -------------------------------------------------------------------------

atom: SANKEY-TYPE ORBITALS:
atom: Selected multiple-zeta basis: split

[...]

SPLIT: Basis orbitals for state 2s

[...]

SPLIT: Orbitals with angular momentum L= 1

SPLIT: Basis orbitals for state 2p

SPLIT: PAO cut-off radius determined from an
SPLIT: energy shift=  0.020000 Ry

   izeta = 1
                 lambda =    1.000000
                     rc =    4.280232
                 energy =   -0.512466
                kinetic =    3.598849
    potential(screened) =   -4.111315
       potential(ionic) =   -9.550563

   izeta = 2
                 rmatch =    2.941647
              splitnorm =    0.150000
                 energy =   -0.292244
                kinetic =    5.357522
    potential(screened) =   -5.649767
       potential(ionic) =  -11.693436

POLgen: Perturbative polarization orbital with L=  2

POLgen: Polarization orbital for state 2p

   izeta = 1
                     rc =    4.280232
                 energy =    1.826084
                kinetic =    3.687342
    potential(screened) =   -1.861257
       potential(ionic) =   -6.363951
atom: Total number of Sankey-type orbitals: 13

atm_pop: Valence configuration (for local Pseudopot. screening):
 2s( 2.00)
 2p( 3.00)
Vna: chval, zval:    5.00000   5.00000

Vna:  Cut-off radius for the neutral-atom potential:   4.280232

atom: _________________________________________________________________________

prinput: Basis input ----------------------------------------------------------

PAO.BasisType split

%block ChemicalSpeciesLabel
    1    5 B                       # Species index, atomic number, species label
    2    7 N                       # Species index, atomic number, species label
%endblock ChemicalSpeciesLabel

%block PAO.Basis                 # Define Basis set
B                     2                    # Species label, number of l-shells
 n=2   0   2                         # n, l, Nzeta
   4.906      4.170
   1.000      1.000
 n=2   1   2 P   1                   # n, l, Nzeta, Polarization, NzetaPol
   5.700      4.276
   1.000      1.000
N                     2                    # Species label, number of l-shells
 n=2   0   2                         # n, l, Nzeta
   3.684      2.905
   1.000      1.000
 n=2   1   2 P   1                   # n, l, Nzeta, Polarization, NzetaPol
   4.280      2.942
   1.000      1.000
%endblock PAO.Basis

prinput: ----------------------------------------------------------------------

coor:   Atomic-coordinates input format  =     Cartesian coordinates
coor:                                          (in Angstroms)

siesta: Atomic coordinates (Bohr) and species
siesta:      0.00000   2.69415   0.00000  1        1
siesta:      0.00000   5.38829   0.00000  2        2
siesta:      0.00000   6.73536   2.33320  1        3
siesta:      0.00000   9.42951   2.33320  2        4
siesta:      0.00000  10.77658   4.66640  1        5
siesta:      0.00000  13.47073   4.66640  2        6
siesta:      0.00000  14.81780   6.99960  1        7
siesta:      0.00000  17.51195   6.99960  2        8
siesta:      0.00000  18.85902   9.33279  1        9
siesta:      0.00000  21.55317   9.33279  2       10
siesta:      0.00000  22.90024  11.66599  1       11
siesta:      0.00000  25.59439  11.66599  2       12
siesta:      0.00000  26.94146  13.99919  1       13
siesta:      0.00000  29.63560  13.99919  2       14
siesta:      0.00000  30.98268  16.33239  1       15
siesta:      0.00000  33.67682  16.33239  2       16
siesta:      0.00000  35.02390  18.66559  1       17
siesta:      0.00000  37.71804  18.66559  2       18
siesta:      0.00000  39.06511  20.99879  1       19
siesta:      0.00000  41.75926  20.99879  2       20
siesta:      0.00000  43.10633  23.33199  1       21
[...]
siesta:       Ion-ion = 1321224.888599
siesta:       Ekinion =       0.000000
siesta:         Total = -365120.893888

siesta: Stress tensor (static) (eV/Ang**3):
siesta:     0.000377    0.000000   -0.000000
siesta:     0.000000   -0.007957   -0.000000
siesta:    -0.000000   -0.000000   -0.007957

siesta: Cell volume =     108149.857889 Ang**3

siesta: Pressure (static):
siesta:                Solid            Molecule  Units
siesta:           0.00005641          0.00005622  Ry/Bohr**3
siesta:           0.00517918          0.00516173  eV/Ang**3
siesta:           8.29805831          8.27009707  kBar
(Free)E+ p_basis*V_orbitals  =     -364410.012885
(Free)Eharris+ p_basis*V_orbitals  =     -364410.012941

siesta: Electric dipole (a.u.)  =    0.000001    0.000000    0.000000
siesta: Electric dipole (Debye) =    0.000002    0.000000    0.000000
>> End of run:   8-DEC-2016  16:20:54
***             WIDEN YOUR WINDOW TO 120 CHARACTERS.  Use 'enscript -r -fCourier9' to print this document            ***

---------------------------------------------- PETSc Performance Summary: ----------------------------------------------

Using Petsc Development GIT revision: v3.7.4-1897-g257f32f  GIT Date: 2016-11-03 16:33:24 +0000

                         Max       Max/Min        Avg      Total
Objects:              3.421e+03      1.39747   2.972e+03
Flops:                4.575e+10   87963.12312   1.416e+10  2.899e+13
Flops/sec:            8.123e+07   87963.09687   2.513e+07  5.147e+10

Flop counting convention: 1 flop = 1 real number operation of type (multiply/divide/add/subtract)
                            e.g., VecAXPY() for real vectors of length N --> 2N flops
                            and VecAXPY() for complex vectors of length N --> 8N flops

Summary of Stages:   ----- Time ------  ----- Flops -----  --- Messages ---  -- Message Lengths --  -- Reductions --
                        Avg     %Total     Avg     %Total   counts   %Total     Avg         %Total   counts   %Total
 0:      Main Stage: 7.6322e-05   0.0%  0.0000e+00   0.0%  0.000e+00   0.0%  0.000e+00        0.0%  0.000e+00   0.0%
 1:     siesta_init: 5.6321e-01   0.1%  0.0000e+00   0.0%  0.000e+00   0.0%  0.000e+00        0.0%  0.000e+00   0.0%
 2:   siesta_forces: 2.1748e+01   3.9%  0.0000e+00   0.0%  0.000e+00   0.0%  0.000e+00        0.0%  0.000e+00   0.0%
 3:    siesta_solve: 2.4833e-04   0.0%  0.0000e+00   0.0%  0.000e+00   0.0%  0.000e+00        0.0%  0.000e+00   0.0%
 4:    siesta2qetsc: 1.5376e-01   0.0%  0.0000e+00   0.0%  4.465e+05   0.1%  5.588e-02        0.0%  5.700e+01   0.1%
 5: qetsc_setup_eps: 1.4417e+01   2.6%  4.7292e+09   0.0%  7.631e+06   2.2%  1.993e+02        7.5%  3.140e+02   0.7%
 6: qetsc_solve_eps: 4.5054e+02  80.0%  2.8988e+13 100.0%  2.562e+08  72.5%  2.437e+03       91.6%  1.285e+04  28.2%
 7:   qetsc_eigvals: 5.4611e-04   0.0%  0.0000e+00   0.0%  0.000e+00   0.0%  0.000e+00        0.0%  0.000e+00   0.0%
 8:   qetsc_density: 3.6368e+01   6.5%  0.0000e+00   0.0%  8.909e+07  25.2%  2.528e+01        1.0%  4.482e+04  98.3%
10:     siesta_misc: 3.7841e+01   6.7%  0.0000e+00   0.0%  0.000e+00   0.0%  0.000e+00        0.0%  0.000e+00   0.0%
11:     qetsc_clean: 4.0434e-02   0.0%  0.0000e+00   0.0%  0.000e+00   0.0%  0.000e+00        0.0%  0.000e+00   0.0%
12:     siesta_move: 3.0591e-05   0.0%  0.0000e+00   0.0%  0.000e+00   0.0%  0.000e+00        0.0%  0.000e+00   0.0%
13: siesta_analysis: 2.0167e-04   0.0%  0.0000e+00   0.0%  0.000e+00   0.0%  0.000e+00        0.0%  0.000e+00   0.0%
14:      siesta_end: 1.5755e+00   0.3%  0.0000e+00   0.0%  0.000e+00   0.0%  0.000e+00        0.0%  0.000e+00   0.0%

See the 'Profiling' chapter of the users' manual for details on interpreting output.
Phase summary info:
   Count: number of times phase was executed
   Mess: number of messages sent
   Reduct: number of global reductions
   Global: entire computation
   Stage: stages of a computation. Set stages with PetscLogStagePush() and PetscLogStagePop().
      %T - percent time in this phase         %F - percent flops in this phase
      %M - percent messages in this phase     %L - percent message lengths in this phase
      %R - percent reductions in this phase
                   Max Ratio  Max     Ratio   Max  Ratio  Mess   Avg len Reduct  %T %F %M %L %R  %T %F %M %L %R Mflop/s

--- Event Stage 0: Main Stage

--- Event Stage 1: siesta_init

--- Event Stage 2: siesta_forces

--- Event Stage 3: siesta_solve

--- Event Stage 4: siesta2qetsc

MatConvert             2 1.0 3.3474e-04 2.0 0.00e+00 0.0 0.0e+00 0.0e+00 0.0e+00  0  0  0  0  0   0  0  0  0  0     0
MatAssemblyBegin      11 1.0 4.8010e-02 5.0 0.00e+00 0.0 0.0e+00 0.0e+00 4.4e+01  0  0  0  0  0  12  0  0  0 77     0
MatAssemblyEnd        11 1.0 3.3410e-03 1.1 0.00e+00 0.0 4.5e+05 4.4e+01 1.1e+01  0  0  0  0  0   2  0100100 19     0
VecSet                 3 1.0 2.1219e-0522.2 0.00e+00 0.0 0.0e+00 0.0e+00 0.0e+00  0  0  0  0  0   0  0  0  0  0     0

--- Event Stage 5: qetsc_setup_eps

MatCholFctrSym         1 1.0 4.2403e-01 1.1 0.00e+00 0.0 0.0e+00 0.0e+00 5.0e+00  0  0  0  0  0   3  0  0  0  2     0
MatCholFctrNum         5 1.0 1.0204e+01 1.5 0.00e+00 0.0 0.0e+00 0.0e+00 0.0e+00  1  0  0  0  0  50  0  0  0  0     0
MatCopy                4 1.0 1.6887e-01 1.1 0.00e+00 0.0 0.0e+00 0.0e+00 2.4e+01  0  0  0  0  0   1  0  0  0  8     0
MatConvert             1 1.0 4.7441e-0310.8 0.00e+00 0.0 0.0e+00 0.0e+00 0.0e+00  0  0  0  0  0   0  0  0  0  0     0
MatScale              18 1.0 1.4715e-02 9.9 4.10e+06 7.9 0.0e+00 0.0e+00 0.0e+00  0  0  0  0  0   0100  0  0  0 321388
MatAssemblyBegin      31 1.0 1.0499e+001884.3 0.00e+00 0.0 0.0e+00 0.0e+00 8.0e+01  0  0  0  0  0   3  0  0  0 25     0
MatAssemblyEnd        31 1.0 1.7372e-02 1.2 0.00e+00 0.0 4.2e+05 2.1e+03 8.8e+01  0  0  0  0  0   0  0  6  1 28     0
MatGetRow          11648 1.0 6.5862e-02 6.9 0.00e+00 0.0 0.0e+00 0.0e+00 0.0e+00  0  0  0  0  0   0  0  0  0  0     0
MatGetSubMatrice      11 1.0 5.5556e-0111.0 0.00e+00 0.0 7.2e+06 9.6e+03 2.2e+01  0  0  2  7  0   3  0 94 99  7     0
MatZeroEntries         4 1.0 3.2530e-03 4.4 0.00e+00 0.0 0.0e+00 0.0e+00 0.0e+00  0  0  0  0  0   0  0  0  0  0     0
MatAXPY               14 1.0 3.6285e-01 1.1 0.00e+00 0.0 2.7e+05 2.1e+03 8.0e+01  0  0  0  0  0   2  0  3  1 25     0
MatRedundantMat       11 1.0 9.2831e-01 1.2 0.00e+00 0.0 7.4e+06 9.5e+03 1.1e+02  0  0  2  7  0   6  0 97 99 35     0
MatMPIConcateSeq      11 1.0 7.7603e-01 2.4 0.00e+00 0.0 1.6e+05 2.1e+03 8.9e+01  0  0  0  0  0   3  0  2  0 28     0
VecSet                10 1.0 7.4148e-0518.3 0.00e+00 0.0 0.0e+00 0.0e+00 0.0e+00  0  0  0  0  0   0  0  0  0  0     0
EPSSetUp               5 1.0 1.3600e+01 1.0 0.00e+00 0.0 1.7e+06 8.0e+03 2.4e+02  2  0  0  1  1  94  0 22 19 77     0
STSetUp               10 1.0 1.1169e+01 1.5 0.00e+00 0.0 2.7e+05 2.1e+03 1.1e+02  1  0  0  0  0  56  0  3  1 36     0
KSPSetUp               5 1.0 6.9141e-06 0.0 0.00e+00 0.0 0.0e+00 0.0e+00 0.0e+00  0  0  0  0  0   0  0  0  0  0     0
PCSetUp                5 1.0 1.0658e+01 1.5 0.00e+00 0.0 0.0e+00 0.0e+00 5.0e+00  1  0  0  0  0  53  0  0  0  2     0
BVCreate               4 1.0 3.3380e-02 2.1 0.00e+00 0.0 0.0e+00 0.0e+00 8.0e+00  0  0  0  0  0   0  0  0  0  3     0

--- Event Stage 6: qetsc_solve_eps

MatMult            22817 0.0 4.9250e+01 0.0 4.15e+10 0.0 1.5e+08 5.3e+03 0.0e+00  3 86 41 82  0   3 86 57 89  0 504643
MatSolve            8825 0.0 2.7856e+02 0.0 0.00e+00 0.0 1.1e+08 8.4e+02 4.6e+03 25  0 31 10 10  31  0 43 11 36     0
MatCholFctrNum        39 3.9 6.7061e+01 5.0 0.00e+00 0.0 0.0e+00 0.0e+00 0.0e+00  6  0  0  0  0   8  0  0  0  0     0
MatCopy               39 3.9 1.6227e+00 4.1 0.00e+00 0.0 0.0e+00 0.0e+00 1.4e+02  0  0  0  0  0   0  0  0  0  1     0
MatAssemblyBegin      78 3.9 3.6325e+007004.9 0.00e+00 0.0 0.0e+00 0.0e+00 1.9e+02  0  0  0  0  0   0  0  0  0  1     0
MatAssemblyEnd        78 3.9 7.1146e-02 3.9 0.00e+00 0.0 1.2e+06 2.1e+03 2.8e+02  0  0  0  0  1   0  0  0  0  2     0
MatGetRow          97344 3.9 5.4771e-0126.2 0.00e+00 0.0 0.0e+00 0.0e+00 0.0e+00  0  0  0  0  0   0  0  0  0  0     0
MatZeroEntries        39 3.9 3.1062e-0213.2 0.00e+00 0.0 0.0e+00 0.0e+00 0.0e+00  0  0  0  0  0   0  0  0  0  0     0
MatAXPY               39 3.9 2.5805e+00 4.0 0.00e+00 0.0 1.2e+06 2.1e+03 3.7e+02  0  0  0  0  1   0  0  0  0  3     0
VecDot              1272 0.0 1.2956e+00 0.0 2.12e+06 0.0 0.0e+00 0.0e+00 6.4e+02  0  0  0  0  1   0  0  0  0  5  1682
VecCopy             1525 0.0 4.4355e-03 0.0 0.00e+00 0.0 0.0e+00 0.0e+00 0.0e+00  0  0  0  0  0   0  0  0  0  0     0
VecSet             773157731.5 3.9486e-0157108.7 0.00e+00 0.0 0.0e+00 0.0e+00 0.0e+00  0  0  0  0  0   0  0  0  0  0     0
VecScatterBegin    40467 0.0 1.3079e+00 0.0 0.00e+00 0.0 2.5e+08 3.4e+03 4.6e+03  0  0 72 91 10   0  0 99100 36     0
VecScatterEnd      31642 0.0 1.9007e+01 0.0 0.00e+00 0.0 0.0e+00 0.0e+00 0.0e+00  0  0  0  0  0   0  0  0  0  0     0
VecSetRandom          11 0.0 3.4070e-04 0.0 0.00e+00 0.0 0.0e+00 0.0e+00 0.0e+00  0  0  0  0  0   0  0  0  0  0     0
EPSSetUp              10 1.0 2.9688e+01 1.0 0.00e+00 0.0 5.3e+05 2.1e+03 3.5e+02  5  0  0  0  1   7  0  0  0  3     0
EPSSolve              10 1.0 4.5062e+02 1.0 4.57e+10 0.0 2.6e+08 3.4e+03 1.3e+04 80100 73 92 28 100100100100100 64328
STSetUp               15 1.0 1.1052e+01 1.6 0.00e+00 0.0 2.7e+05 2.1e+03 1.1e+02  1  0  0  0  0   2  0  0  0  1     0
STApply             8825 0.0 2.8702e+02 0.0 1.61e+10 0.0 1.7e+08 2.3e+03 4.6e+03 26 33 47 41 10  32 33 65 45 36 33376
STMatSolve          8825 0.0 2.7883e+02 0.0 0.00e+00 0.0 1.1e+08 8.4e+02 4.6e+03 25  0 31 10 10  31  0 43 11 36     0
KSPSetUp              39 3.9 2.5511e-05 0.0 0.00e+00 0.0 0.0e+00 0.0e+00 0.0e+00  0  0  0  0  0   0  0  0  0  0     0
KSPSolve            8825 0.0 2.7869e+02 0.0 0.00e+00 0.0 1.1e+08 8.4e+02 4.6e+03 25  0 31 10 10  31  0 43 11 36     0
PCSetUp               39 3.9 6.7061e+01 5.0 0.00e+00 0.0 0.0e+00 0.0e+00 0.0e+00  6  0  0  0  0   8  0  0  0  0     0
PCApply             8825 0.0 2.7857e+02 0.0 0.00e+00 0.0 1.1e+08 8.4e+02 4.6e+03 25  0 31 10 10  31  0 43 11 36     0
BVCreate              5410.8 5.7079e-02 2.3 0.00e+00 0.0 0.0e+00 0.0e+00 2.0e+02  0  0  0  0  0   0  0  0  0  2     0
BVCopy              1525 0.0 5.1677e-03 0.0 0.00e+00 0.0 0.0e+00 0.0e+00 0.0e+00  0  0  0  0  0   0  0  0  0  0     0
BVMultVec          12750 0.0 5.5994e-01 0.0 1.67e+09 0.0 0.0e+00 0.0e+00 0.0e+00  0  5  0  0  0   0  5  0  0  0 2832195
BVMultInPlace        235 0.0 5.0978e-02 0.0 8.66e+08 0.0 0.0e+00 0.0e+00 0.0e+00  0  3  0  0  0   0  3  0  0  0 18236100
BVDotVec           12750 0.0 3.0684e+01 0.0 2.49e+10 0.0 8.2e+07 5.3e+03 6.6e+03  3 54 23 46 15   3 54 32 50 52 506470
BVOrthogonalizeV    7583 0.0 3.1113e+01 0.0 2.66e+10 0.0 8.2e+07 5.3e+03 6.6e+03  3 59 23 46 15   4 59 32 50 52 550473
BVScale             8825 0.0 2.2774e-02 0.0 7.34e+06 0.0 0.0e+00 0.0e+00 0.0e+00  0  0  0  0  0   0  0  0  0  0 341826
BVNormVec           1272 0.0 2.8748e+00 0.0 2.32e+09 0.0 7.9e+06 5.3e+03 6.4e+02  0  5  2  4  1   0  5  3  5  5 467546
BVSetRandom           11 0.0 3.6001e-04 0.0 0.00e+00 0.0 0.0e+00 0.0e+00 0.0e+00  0  0  0  0  0   0  0  0  0  0     0
DSSolve              207 0.0 2.7244e-01 0.0 0.00e+00 0.0 0.0e+00 0.0e+00 0.0e+00  0  0  0  0  0   0  0  0  0  0     0
DSVectors          12779 0.0 3.9768e-03 0.0 0.00e+00 0.0 0.0e+00 0.0e+00 0.0e+00  0  0  0  0  0   0  0  0  0  0     0
DSOther              235 0.0 2.5876e-02 0.0 0.00e+00 0.0 0.0e+00 0.0e+00 0.0e+00  0  0  0  0  0   0  0  0  0  0     0

--- Event Stage 7: qetsc_eigvals

--- Event Stage 8: qetsc_density

VecCopy            40960 1.0 1.1400e-02 1.5 0.00e+00 0.0 0.0e+00 0.0e+00 0.0e+00  0  0  0  0  0   0  0  0  0  0     0
VecSet                 1 1.0 8.7976e-05 3.5 0.00e+00 0.0 0.0e+00 0.0e+00 0.0e+00  0  0  0  0  0   0  0  0  0  0     0
VecScatterBegin    81920 1.0 3.1725e+01 1.0 0.00e+00 0.0 8.4e+07 1.0e+02 4.1e+04  6  0 24  1 90  87  0 94 98 91     0
VecScatterEnd      40960 1.0 3.5173e+00 1.1 0.00e+00 0.0 0.0e+00 0.0e+00 0.0e+00  1  0  0  0  0   9  0  0  0  0     0
BVCopy             40960 1.0 3.3800e-02 1.4 0.00e+00 0.0 0.0e+00 0.0e+00 0.0e+00  0  0  0  0  0   0  0  0  0  0     0

--- Event Stage 9: Unknown

--- Event Stage 10: siesta_misc

--- Event Stage 11: qetsc_clean

--- Event Stage 12: siesta_move

--- Event Stage 13: siesta_analysis

--- Event Stage 14: siesta_end

Reports information only for process 0.

--- Event Stage 0: Main Stage

--- Event Stage 1: siesta_init

--- Event Stage 2: siesta_forces

--- Event Stage 3: siesta_solve

--- Event Stage 4: siesta2qetsc

              Matrix     9              0            0     0.
              Vector    19              1         1648     0.
      Vector Scatter     4              0            0     0.
           Index Set     4              4        21352     0.

--- Event Stage 5: qetsc_setup_eps

              Matrix    31             15     28596520     0.
              Vector   111             67      2494896     0.
      Vector Scatter    18              9         9648     0.
           Index Set    63             56       891776     0.
          EPS Solver     2              0            0     0.
  Spectral Transform     2              0            0     0.
       Krylov Solver     2              0            0     0.
      Preconditioner     2              0            0     0.
       Basis Vectors     7              4         4224     0.
         PetscRandom     1              0            0     0.
              Region     2              0            0     0.
       Direct Solver     2              0            0     0.

--- Event Stage 6: qetsc_solve_eps

              Matrix    30             30     57424200     0.
              Vector   135            135      3941424     0.
      Vector Scatter    20             20        21440     0.
           Index Set    40             40      1091200     0.
       Basis Vectors    10             10        10560     0.

--- Event Stage 7: qetsc_eigvals

--- Event Stage 8: qetsc_density

              Vector    11             10        83040     0.
      Vector Scatter   641            640       687120     0.
           Index Set  1281           1281      1070864     0.

--- Event Stage 9: Unknown

--- Event Stage 10: siesta_misc

--- Event Stage 11: qetsc_clean

              Matrix     0             25     50108118     0.
              Vector     0             63      2064120     0.
      Vector Scatter     0             14        14176     0.
           Index Set     0              7         5488     0.
          EPS Solver     0              2       229056     0.
  Spectral Transform     0              2         1632     0.
       Krylov Solver     0              2         2336     0.
      Preconditioner     0              2         1952     0.
       Basis Vectors     0              3         3168     0.
         PetscRandom     0              1          638     0.
              Region     0              2         1312     0.
       Direct Solver     0              2       109992     0.

--- Event Stage 12: siesta_move

--- Event Stage 13: siesta_analysis

--- Event Stage 14: siesta_end

              Viewer     1              0            0     0.
Average time to get PetscTime(): 0.
Average time for MPI_Barrier(): 1.74046e-05
Average time for zero size MPI_Send(): 1.59082e-06
#PETSc Option Table entries:
-eps_interval -2.3,0.
-eps_krylovschur_detect_zeros 0
-eps_krylovschur_partitions 64
-ioptbin 7
-ioptdensity 0
-ioptinertia 1
-ioptleft 2
-log_view
-mat_mumps_cntl_3 1e-12
-mat_mumps_icntl_13 1
-mat_mumps_icntl_23 3000
-mat_mumps_icntl_24 1
-mat_mumps_icntl_28 1
-mat_mumps_icntl_7 5
-mat_type mpisbaij
-roptbuffer 0.1
-roptdiff 0.01
-writeeigs 1
#End of PETSc Option Table entries
Compiled without FORTRAN kernels
Compiled with full precision matrices (default)
sizeof(short) 2 sizeof(int) 4 sizeof(long) 8 sizeof(void*) 8 sizeof(PetscScalar) 8 sizeof(PetscInt) 4
Configure options: --COPTFLAGS="-O3 -g" --CXXOPTFLAGS="-O3 -g" --FOPTFLAGS="-O3 -g" --download-mumps --download-metis --download-parmetis --download-ptscotch=1 --download-scalapack=1 --with-cc=cc --with-clib-autodetect=0 --with-cxx=CC --with-cxxlib-autodetect=0 --with-debugging=0 --with-fc=ftn --with-fortranlib-autodetect=0 --with-mpiexec=srun --with-ssl=0 --with-x=0
Libraries compiled on Thu Nov 24 23:08:27 2016 on cori03
Machine characteristics: Linux-3.12.60-52.57.1.11767.0.PTF.996988-default-x86_64-with-SuSE-12-x86_64
Using PETSc directory: /global/homes/k/keceli/petsc
Using PETSc arch: arch-cori-gcc

Using include paths: -I/global/homes/k/keceli/petsc/arch-cori-gcc/include -I/global/homes/k/keceli/petsc/include -I/global/homes/k/keceli/petsc/include -I/global/homes/k/keceli/petsc/arch-cori-gcc/include